%-----------------------------------------------------------------------------%
% Dual Arm Multi Capacity Multi Tool Scheduling / Routing
% Assembly Configuration
% Auto Generated by python script, authored by Johan Ludde Wessen 
%-----------------------------------------------------------------------------%


task_durations = [|26, 26, 27, 26, 28, 33, 24, 29, 40, 42, 60, 55, 51, 57, 47, 44,  7,  7,  6,  6,  7,  8,  4
                  |33, 28, 30, 27, 29, 27, 23, 29, 50, 42, 54, 53, 52, 46, 43, 52,  5,  5,  5,  8,  5,  6,  5
                  |];


TRAY_TASKS = 1..6;
CAMERA_TASKS = {  };
OUTPUT_TASKS = { 16 };


empty_gripper_tasks = 17..23;


gripper_pick_tasks_orders = [|1, 9, -1
|2, 10, -1
|3, 11, -1
|4, 12, -1
|5, 13, -1
|6, 14, -1
|7, 15, -1
|8, 16, -1
|];

suction_pick_tasks_orders = [||];

fixture_task_orders = [|9, 17, 10, 18, 11, 19, 7, -1, -1, -1
|12, 20, 13, 21, 14, 22, 15, 23, 8, -1
|];

